data;

param num_top:=6;

#nodes and edges of the physical network
param n := 10;

set E := (1,2) (1,3) (1,7) (2,4) (2,7) (3,5) (4,8) (5,6) (5,7) (6,7) (6,9) (7,8) (7,9) (8,10) (9,10) ;

#nodes and edges of the virtual networks
set Nl[1] := 2 1 9 10 ;
set Nl[2] := 1 4 10 8 ;
set Nl[3] := 8 1 7 6 4 ;
set Nl[4] := 9 8 5 4 1 ;
set Nl[5] := 3 10 6 1 ;
set Nl[6] := 5 3 2 6 10 ;

set El[1] := (1,2) (1,9) (9,10) (2,10) ;
set El[2] := (1,4) (4,10) (8,10) (1,8) (4,8) (1,10) ;
set El[3] := (1,8) (1,7) (6,7) (4,6) (4,8) ;
set El[4] := (8,9) (5,8) (4,5) (1,4) (1,9) (5,9) (4,9) (1,5) (1,8) (4,8) ;
set El[5] := (3,10) (6,10) (1,6) (1,3) (1,10) (3,6) ;
set El[6] := (3,5) (2,3) (2,6) (6,10) (5,10) ;
